p cnf 10 37
-7 -5 2 0
-8 2 -6 0
10 -9 -2 0
10 7 2 0
10 2 9 0
-2 -9 -4 0
-10 -7 5 0
-10 -7 1 0
9 1 5 0
9 10 -2 0
-6 -5 10 0
4 5 -1 0
-9 -1 -3 0
6 3 9 0
10 -1 3 0
4 6 -2 0
8 -7 10 0
10 3 -6 0
4 -7 -1 0
4 9 -2 0
-5 9 -10 0
3 10 1 0
-2 -3 -7 0
9 1 3 0
-1 9 -4 0
-8 -1 4 0
8 5 10 0
-9 -2 1 0
8 3 7 0
-3 9 10 0
2 8 -9 0
-1 -6 10 0
4 3 8 0
4 -1 6 0
4 9 5 0
8 3 1 0
8 -6 1 0
